p cnf 39 114
a 28 7 0
e 1 2 3 4 5 6 8 9 10 11 12 13 14 15 16 17 18 19 20 21 22 23 24 25 26 27 29 30 31 32 33 34 35 36 37 38 39 0
-3 1 0
-3 -2 0
-1 2 3 0
-1 3 -4 0
1 -3 -4 0
-1 -3 4 0
1 3 4 0
4 1 -5 0
-4 -1 -5 0
4 -1 5 0
-4 1 5 0
8 6 0
8 7 0
-6 -7 -8 0
-9 2 0
-9 -2 0
9 4 -10 0
-9 -4 -10 0
9 -4 10 0
-9 4 10 0
-10 -11 -12 0
10 11 -12 0
-10 11 12 0
10 -11 12 0
-13 8 0
-13 12 0
-8 -12 13 0
14 -5 0
14 -13 0
5 13 -14 0
15 -12 0
15 -7 0
12 7 -15 0
-2 -15 -16 0
2 15 -16 0
-2 15 16 0
2 -15 16 0
-17 14 0
-17 -16 0
-14 16 17 0
19 6 0
19 18 0
-6 -18 -19 0
-20 11 0
-20 -19 0
-11 19 20 0
21 6 0
21 -7 0
-6 7 -21 0
-20 -21 -22 0
20 21 -22 0
-20 21 22 0
20 -21 22 0
-3 -18 -23 0
3 18 -23 0
-3 18 23 0
3 -18 23 0
-25 11 0
-25 12 0
-11 -12 25 0
-26 24 0
-26 25 0
-24 -25 26 0
-27 -23 0
-27 -26 0
23 26 27 0
22 -27 -28 0
-22 27 -28 0
22 27 28 0
-22 -27 28 0
11 -29 0
-11 -29 0
15 -30 -31 0
-15 30 -31 0
15 30 31 0
-15 -30 31 0
-32 29 0
-32 -31 0
-29 31 32 0
28 32 -33 0
-28 -32 -33 0
28 -32 33 0
-28 32 33 0
34 -2 0
34 -9 0
2 9 -34 0
-35 34 0
-35 -11 0
-34 11 35 0
-36 -33 0
-36 -35 0
33 35 36 0
-37 -17 0
-37 36 0
17 -36 37 0
-4 11 -38 0
4 -11 -38 0
-4 -11 38 0
4 11 38 0
-37 38 -39 0
37 -38 -39 0
-37 -38 39 0
37 38 39 0
-38 -21 3 14 -6 32 24 -39 0
29 -16 -36 -6 18 -8 -1 0
-26 -39 18 -14 30 -7 0
20 32 9 -24 -26 -25 0
29 15 -13 -38 -39 -34 -14 0
39 -22 35 -38 0
21 -34 0
-12 -21 -25 -23 2 24 4 38 0
-20 -22 -25 -5 0
-26 -16 -27 -5 30 39 22 0
39 0
